p tw 37 132
0 1
0 2
0 3
0 4
0 5
0 6
0 7
0 8
0 11
0 23
0 9
0 24
0 25
0 26
0 27
0 28
0 29
0 30
0 31
0 32
0 33
0 21
0 34
0 35
0 36
1 2
1 3
1 4
2 3
2 4
3 4
5 6
5 7
5 8
5 14
5 15
5 16
5 17
5 18
5 19
6 7
6 8
6 20
7 8
9 10
9 11
9 12
9 13
9 24
9 25
9 26
9 27
9 28
9 29
9 30
9 31
9 32
9 33
10 11
10 12
10 13
11 12
11 13
11 23
12 13
14 15
14 16
14 17
14 18
14 19
15 16
15 17
15 18
15 19
16 17
16 18
16 19
17 18
17 19
18 19
21 22
21 34
21 35
21 36
24 25
24 26
24 27
24 28
24 29
24 30
24 31
24 32
24 33
25 26
25 27
25 28
25 29
25 30
25 31
25 32
25 33
26 27
26 28
26 29
26 30
26 31
26 32
26 33
27 28
27 29
27 30
27 31
27 32
27 33
28 29
28 30
28 31
28 32
28 33
29 30
29 31
29 32
29 33
30 31
30 32
30 33
31 32
31 33
32 33
34 35
34 36
35 36
